NAME : mtsp51.471693.tour
COMMENT : Length = 471693
COMMENT : Found by LKH-3 [Keld Helsgaun] Tue Mar 15 22:40:29 2022
TYPE : TOUR
DIMENSION : 55
TOUR_SECTION
1
22
52
27
53
2
54
8
26
31
28
3
36
35
20
29
21
16
50
34
30
9
49
10
39
33
45
15
44
42
19
40
41
13
25
14
24
43
7
23
48
6
51
46
12
47
18
4
17
37
5
38
11
55
32
-1
EOF
